\ENCODING=ISO-8859-1
\Problem name: ilog.cplex

Maximize
 obj: 747 x(0)#0 + 780 x(1)#1 + 712 x(2)#2 + 656 x(3)#3 + 1074 x(4)#4
      + 623 x(5)#5 + 1079 x(6)#6 + 514 x(7)#7 + 831 x(8)#8 + 529 x(9)#9
      + 895 x(10)#10 + 936 x(11)#11 + 968 x(12)#12 + 702 x(13)#13
      + 481 x(14)#14 + 998 x(15)#15 + 592 x(16)#16 + 876 x(17)#17
      + 921 x(18)#18 + 872 x(19)#19 + 1068 x(20)#20 + 419 x(21)#21
      + 1066 x(22)#22 + 730 x(23)#23 + 765 x(24)#24 + 1127 x(25)#25
      + 427 x(26)#26 + 891 x(27)#27 + 970 x(28)#28 + 752 x(29)#29
      + 887 x(30)#30 + 946 x(31)#31 + 673 x(32)#32 + 711 x(33)#33
      + 959 x(34)#34 + 675 x(35)#35 + 683 x(36)#36 + 787 x(37)#37
      + 919 x(38)#38 + 708 x(39)#39 + 659 x(40)#40 + 602 x(41)#41
      + 714 x(42)#42 + 1068 x(43)#43 + 505 x(44)#44 + 504 x(45)#45
      + 651 x(46)#46 + 822 x(47)#47 + 919 x(48)#48 + 666 x(49)#49
      + 972 x(50)#50 + 522 x(51)#51 + 496 x(52)#52 + 1004 x(53)#53
      + 646 x(54)#54 + 1267 x(55)#55 + 512 x(56)#56 + 1030 x(57)#57
      + 564 x(58)#58 + 829 x(59)#59 + 902 x(60)#60 + 618 x(61)#61
      + 715 x(62)#62 + 527 x(63)#63 + 502 x(64)#64 + 1018 x(65)#65
      + 1035 x(66)#66 + 773 x(67)#67 + 601 x(68)#68 + 1082 x(69)#69
      + 973 x(70)#70 + 440 x(71)#71 + 778 x(72)#72 + 810 x(73)#73
      + 791 x(74)#74 + 659 x(75)#75 + 710 x(76)#76 + 615 x(77)#77
      + 593 x(78)#78 + 497 x(79)#79 + 526 x(80)#80 + 704 x(81)#81
      + 648 x(82)#82 + 987 x(83)#83 + 902 x(84)#84 + 967 x(85)#85
      + 553 x(86)#86 + 704 x(87)#87 + 951 x(88)#88 + 775 x(89)#89
      + 715 x(90)#90 + 363 x(91)#91 + 431 x(92)#92 + 1028 x(93)#93
      + 823 x(94)#94 + 750 x(95)#95 + 492 x(96)#96 + 535 x(97)#97
      + 788 x(98)#98 + 1117 x(99)#99 + 847 x(100)#100 + 991 x(101)#101
      + 902 x(102)#102 + 593 x(103)#103 + 578 x(104)#104 + 764 x(105)#105
      + 957 x(106)#106 + 551 x(107)#107 + 494 x(108)#108 + 712 x(109)#109
      + 842 x(110)#110 + 748 x(111)#111 + 684 x(112)#112 + 942 x(113)#113
      + 672 x(114)#114 + 531 x(115)#115 + 842 x(116)#116 + 885 x(117)#117
      + 777 x(118)#118 + 652 x(119)#119 + 704 x(120)#120 + 576 x(121)#121
      + 808 x(122)#122 + 708 x(123)#123 + 621 x(124)#124 + 1032 x(125)#125
      + 703 x(126)#126 + 876 x(127)#127 + 896 x(128)#128 + 784 x(129)#129
      + 936 x(130)#130 + 539 x(131)#131 + 618 x(132)#132 + 540 x(133)#133
      + 624 x(134)#134 + 828 x(135)#135 + 700 x(136)#136 + 577 x(137)#137
      + 651 x(138)#138 + 414 x(139)#139 + 820 x(140)#140 + 832 x(141)#141
      + 456 x(142)#142 + 837 x(143)#143 + 340 x(144)#144 + 622 x(145)#145
      + 620 x(146)#146 + 1089 x(147)#147 + 800 x(148)#148 + 310 x(149)#149
      + 507 x(150)#150 + 803 x(151)#151 + 835 x(152)#152 + 695 x(153)#153
      + 485 x(154)#154 + 745 x(155)#155 + 656 x(156)#156 + 705 x(157)#157
      + 830 x(158)#158 + 429 x(159)#159 + 808 x(160)#160 + 959 x(161)#161
      + 1014 x(162)#162 + 746 x(163)#163 + 698 x(164)#164 + 836 x(165)#165
      + 1042 x(166)#166 + 661 x(167)#167 + 680 x(168)#168 + 1086 x(169)#169
      + 1006 x(170)#170 + 802 x(171)#171 + 796 x(172)#172 + 860 x(173)#173
      + 518 x(174)#174 + 598 x(175)#175 + 806 x(176)#176 + 821 x(177)#177
      + 953 x(178)#178 + 410 x(179)#179 + 635 x(180)#180 + 831 x(181)#181
      + 949 x(182)#182 + 948 x(183)#183 + 502 x(184)#184 + 1033 x(185)#185
      + 950 x(186)#186 + 634 x(187)#187 + 585 x(188)#188 + 889 x(189)#189
      + 980 x(190)#190 + 709 x(191)#191 + 799 x(192)#192 + 1116 x(193)#193
      + 1151 x(194)#194 + 592 x(195)#195 + 955 x(196)#196 + 1161 x(197)#197
      + 604 x(198)#198 + 620 x(199)#199 + 580 x(200)#200 + 860 x(201)#201
      + 780 x(202)#202 + 916 x(203)#203 + 560 x(204)#204 + 1154 x(205)#205
      + 779 x(206)#206 + 1163 x(207)#207 + 518 x(208)#208 + 605 x(209)#209
      + 866 x(210)#210 + 423 x(211)#211 + 827 x(212)#212 + 697 x(213)#213
      + 390 x(214)#214 + 545 x(215)#215 + 963 x(216)#216 + 763 x(217)#217
      + 600 x(218)#218 + 908 x(219)#219 + 543 x(220)#220 + 572 x(221)#221
      + 954 x(222)#222 + 774 x(223)#223 + 1083 x(224)#224 + 191 x(225)#225
      + 802 x(226)#226 + 501 x(227)#227 + 804 x(228)#228 + 609 x(229)#229
      + 837 x(230)#230 + 811 x(231)#231 + 434 x(232)#232 + 816 x(233)#233
      + 713 x(234)#234 + 629 x(235)#235 + 486 x(236)#236 + 977 x(237)#237
      + 416 x(238)#238 + 744 x(239)#239 + 910 x(240)#240 + 603 x(241)#241
      + 700 x(242)#242 + 657 x(243)#243 + 802 x(244)#244 + 973 x(245)#245
      + 507 x(246)#246 + 773 x(247)#247 + 496 x(248)#248 + 989 x(249)#249
Subject To
 c1: 431 x(0)#0 + 482 x(1)#1 + 529 x(2)#2 + 545 x(3)#3 + 710 x(4)#4
     + 494 x(5)#5 + 981 x(6)#6 + 414 x(7)#7 + 567 x(8)#8 + 376 x(9)#9
     + 176 x(10)#10 + 765 x(11)#11 + 424 x(12)#12 + 519 x(13)#13 + 530 x(14)#14
     + 839 x(15)#15 + 220 x(16)#16 + 996 x(17)#17 + 515 x(18)#18 + 376 x(19)#19
     + 760 x(20)#20 + 552 x(21)#21 + 846 x(22)#22 + 685 x(23)#23 + 885 x(24)#24
     + 289 x(25)#25 + 245 x(26)#26 + 662 x(27)#27 + 555 x(28)#28 + 400 x(29)#29
     + 100 x(30)#30 + 348 x(31)#31 + 522 x(32)#32 + 147 x(33)#33 + 631 x(34)#34
     + 161 x(35)#35 + 736 x(36)#36 + 219 x(37)#37 + 467 x(38)#38 + 82 x(39)#39
     + 33 x(40)#40 + 765 x(41)#41 + 877 x(42)#42 + 774 x(43)#43 + 554 x(44)#44
     + 281 x(45)#45 + 948 x(46)#46 + 219 x(47)#47 + 875 x(48)#48 + 284 x(49)#49
     + 400 x(50)#50 + 709 x(51)#51 + 960 x(52)#52 + 718 x(53)#53 + 183 x(54)#54
     + 837 x(55)#55 + 646 x(56)#56 + 867 x(57)#57 + 939 x(58)#58 + 27 x(59)#59
     + 254 x(60)#60 + 561 x(61)#61 + 541 x(62)#62 + 252 x(63)#63 + 347 x(64)#64
     + 79 x(65)#65 + 872 x(66)#66 + 697 x(67)#67 + 427 x(68)#68 + 832 x(69)#69
     + 741 x(70)#70 + 29 x(71)#71 + 559 x(72)#72 + 234 x(73)#73 + 202 x(74)#74
     + 253 x(75)#75 + 155 x(76)#76 + 385 x(77)#77 + 57 x(78)#78 + 588 x(79)#79
     + 660 x(80)#80 + 426 x(81)#81 + 610 x(82)#82 + 582 x(83)#83 + 788 x(84)#84
     + 505 x(85)#85 + 977 x(86)#86 + 721 x(87)#87 + 647 x(88)#88 + 913 x(89)#89
     + 325 x(90)#90 + 394 x(91)#91 + 11 x(92)#92 + 703 x(93)#93 + 981 x(94)#94
     + 229 x(95)#95 + 714 x(96)#96 + 421 x(97)#97 + 210 x(98)#98 + 425 x(99)#99
     + 479 x(100)#100 + 743 x(101)#101 + 708 x(102)#102 + 327 x(103)#103
     + 26 x(104)#104 + 103 x(105)#105 + 910 x(106)#106 + 641 x(107)#107
     + 515 x(108)#108 + 785 x(109)#109 + 617 x(110)#110 + 91 x(111)#111
     + 567 x(112)#112 + 190 x(113)#113 + 586 x(114)#114 + 179 x(115)#115
     + 630 x(116)#116 + 521 x(117)#117 + 187 x(118)#118 + 359 x(119)#119
     + 961 x(120)#120 + 756 x(121)#121 + 794 x(122)#122 + 34 x(123)#123
     + 420 x(124)#124 + 823 x(125)#125 + 387 x(126)#126 + 526 x(127)#127
     + 727 x(128)#128 + 869 x(129)#129 + 798 x(130)#130 + 209 x(131)#131
     + 196 x(132)#132 + 223 x(133)#133 + 920 x(134)#134 + 256 x(135)#135
     + 1000 x(136)#136 + 477 x(137)#137 + 794 x(138)#138 + 204 x(139)#139
     + 994 x(140)#140 + 601 x(141)#141 + 804 x(142)#142 + 614 x(143)#143
     + 205 x(144)#144 + 433 x(145)#145 + 264 x(146)#146 + 43 x(147)#147
     + 941 x(148)#148 + 7 x(149)#149 + 190 x(150)#150 + 56 x(151)#151
     + 883 x(152)#152 + 507 x(153)#153 + 770 x(154)#154 + 509 x(155)#155
     + 608 x(156)#156 + 396 x(157)#157 + 608 x(158)#158 + 137 x(159)#159
     + 571 x(160)#160 + 904 x(161)#161 + 355 x(162)#162 + 737 x(163)#163
     + 955 x(164)#164 + 249 x(165)#165 + 808 x(166)#166 + 71 x(167)#167
     + 739 x(168)#168 + 780 x(169)#169 + 910 x(170)#170 + 868 x(171)#171
     + 489 x(172)#172 + 119 x(173)#173 + 673 x(174)#174 + 486 x(175)#175
     + 940 x(176)#176 + 258 x(177)#177 + 611 x(178)#178 + 312 x(179)#179
     + 249 x(180)#180 + 139 x(181)#181 + 938 x(182)#182 + 788 x(183)#183
     + 165 x(184)#184 + 366 x(185)#185 + 943 x(186)#186 + 505 x(187)#187
     + 775 x(188)#188 + 523 x(189)#189 + 907 x(190)#190 + 29 x(191)#191
     + 493 x(192)#192 + 558 x(193)#193 + 330 x(194)#194 + 593 x(195)#195
     + 202 x(196)#196 + 428 x(197)#197 + 149 x(198)#198 + 774 x(199)#199
     + 186 x(200)#200 + 914 x(201)#201 + 273 x(202)#202 + 851 x(203)#203
     + 502 x(204)#204 + 798 x(205)#205 + 161 x(206)#206 + 547 x(207)#207
     + 294 x(208)#208 + 90 x(209)#209 + 556 x(210)#210 + 713 x(211)#211
     + 154 x(212)#212 + 260 x(213)#213 + 334 x(214)#214 + 812 x(215)#215
     + 711 x(216)#216 + 14 x(217)#217 + 191 x(218)#218 + 608 x(219)#219
     + 193 x(220)#220 + 14 x(221)#221 + 894 x(222)#222 + 377 x(223)#223
     + 589 x(224)#224 + 110 x(225)#225 + 667 x(226)#226 + 184 x(227)#227
     + 923 x(228)#228 + 73 x(229)#229 + 903 x(230)#230 + 572 x(231)#231
     + 277 x(232)#232 + 874 x(233)#233 + 700 x(234)#234 + 263 x(235)#235
     + 75 x(236)#236 + 492 x(237)#237 + 84 x(238)#238 + 846 x(239)#239
     + 10 x(240)#240 + 136 x(241)#241 + 595 x(242)#242 + 102 x(243)#243
     + 329 x(244)#244 + 346 x(245)#245 + 395 x(246)#246 + 54 x(247)#247
     + 649 x(248)#248 + 219 x(249)#249 <= 62048
 c2: 499 x(0)#0 + 920 x(1)#1 + 207 x(2)#2 + 541 x(3)#3 + 823 x(4)#4
     + 871 x(5)#5 + 179 x(6)#6 + 928 x(7)#7 + 110 x(8)#8 + 280 x(9)#9
     + 709 x(10)#10 + 127 x(11)#11 + 373 x(12)#12 + 416 x(13)#13 + 565 x(14)#14
     + 665 x(15)#15 + 271 x(16)#16 + 42 x(17)#17 + 623 x(18)#18 + 225 x(19)#19
     + 369 x(20)#20 + 173 x(21)#21 + 752 x(22)#22 + 389 x(23)#23 + 415 x(24)#24
     + 926 x(25)#25 + 516 x(26)#26 + 310 x(27)#27 + 713 x(28)#28 + 955 x(29)#29
     + 795 x(30)#30 + 228 x(31)#31 + 274 x(32)#32 + 978 x(33)#33 + 232 x(34)#34
     + 943 x(35)#35 + 598 x(36)#36 + 637 x(37)#37 + 575 x(38)#38 + 165 x(39)#39
     + 130 x(40)#40 + 239 x(41)#41 + 224 x(42)#42 + 703 x(43)#43 + 280 x(44)#44
     + 468 x(45)#45 + 128 x(46)#46 + 849 x(47)#47 + 793 x(48)#48 + 250 x(49)#49
     + 795 x(50)#50 + 189 x(51)#51 + 361 x(52)#52 + 529 x(53)#53 + 641 x(54)#54
     + 624 x(55)#55 + 273 x(56)#56 + 691 x(57)#57 + 765 x(58)#58 + 999 x(59)#59
     + 831 x(60)#60 + 163 x(61)#61 + 190 x(62)#62 + 377 x(63)#63 + 726 x(64)#64
     + 607 x(65)#65 + 755 x(66)#66 + 532 x(67)#67 + 237 x(68)#68 + 317 x(69)#69
     + 473 x(70)#70 + 452 x(71)#71 + 928 x(72)#72 + 551 x(73)#73 + 437 x(74)#74
     + 847 x(75)#75 + 456 x(76)#76 + 862 x(77)#77 + 432 x(78)#78 + 2 x(79)#79
     + 107 x(80)#80 + 776 x(81)#81 + 149 x(82)#82 + 746 x(83)#83 + 284 x(84)#84
     + 657 x(85)#85 + 251 x(86)#86 + 401 x(87)#87 + 153 x(88)#88 + 331 x(89)#89
     + 731 x(90)#90 + 126 x(91)#91 + 174 x(92)#92 + 838 x(93)#93 + 257 x(94)#94
     + 555 x(95)#95 + 325 x(96)#96 + 525 x(97)#97 + 570 x(98)#98 + 485 x(99)#99
     + 866 x(100)#100 + 989 x(101)#101 + 794 x(102)#102 + 46 x(103)#103
     + 39 x(104)#104 + 758 x(105)#105 + 619 x(106)#106 + 242 x(107)#107
     + 381 x(108)#108 + 248 x(109)#109 + 932 x(110)#110 + 251 x(111)#111
     + 781 x(112)#112 + 868 x(113)#113 + 15 x(114)#114 + 653 x(115)#115
     + 705 x(116)#116 + 743 x(117)#117 + 848 x(118)#118 + 833 x(119)#119
     + 534 x(120)#120 + 72 x(121)#121 + 838 x(122)#122 + 106 x(123)#123
     + 742 x(124)#124 + 579 x(125)#125 + 180 x(126)#126 + 361 x(127)#127
     + 39 x(128)#128 + 509 x(129)#129 + 309 x(130)#130 + 377 x(131)#131
     + 566 x(132)#132 + 479 x(133)#133 + 145 x(134)#134 + 682 x(135)#135
     + 192 x(136)#136 + 302 x(137)#137 + 649 x(138)#138 + 270 x(139)#139
     + 878 x(140)#140 + 712 x(141)#141 + 236 x(142)#142 + 45 x(143)#143
     + 182 x(144)#144 + 902 x(145)#145 + 560 x(146)#146 + 840 x(147)#147
     + 377 x(148)#148 + 250 x(149)#149 + 151 x(150)#150 + 583 x(151)#151
     + 697 x(152)#152 + 32 x(153)#153 + 119 x(154)#154 + 524 x(155)#155
     + 719 x(156)#156 + 196 x(157)#157 + 295 x(158)#158 + 788 x(159)#159
     + 565 x(160)#160 + 999 x(161)#161 + 674 x(162)#162 + 489 x(163)#163
     + 224 x(164)#164 + 585 x(165)#165 + 590 x(166)#166 + 648 x(167)#167
     + 147 x(168)#168 + 445 x(169)#169 + 945 x(170)#170 + 411 x(171)#171
     + 956 x(172)#172 + 319 x(173)#173 + 408 x(174)#174 + 310 x(175)#175
     + 639 x(176)#176 + 78 x(177)#177 + 488 x(178)#178 + 170 x(179)#179
     + 164 x(180)#180 + 82 x(181)#181 + 32 x(182)#182 + 332 x(183)#183
     + 114 x(184)#184 + 388 x(185)#185 + 676 x(186)#186 + 827 x(187)#187
     + 400 x(188)#188 + 544 x(189)#189 + 163 x(190)#190 + 771 x(191)#191
     + 167 x(192)#192 + 723 x(193)#193 + 675 x(194)#194 + 268 x(195)#195
     + 913 x(196)#196 + 852 x(197)#197 + 881 x(198)#198 + 785 x(199)#199
     + 160 x(200)#200 + 812 x(201)#201 + 762 x(202)#202 + 154 x(203)#203
     + 734 x(204)#204 + 645 x(205)#205 + 737 x(206)#206 + 833 x(207)#207
     + 48 x(208)#208 + 420 x(209)#209 + 879 x(210)#210 + 140 x(211)#211
     + 42 x(212)#212 + 118 x(213)#213 + 123 x(214)#214 + 311 x(215)#215
     + 593 x(216)#216 + 444 x(217)#217 + 151 x(218)#218 + 935 x(219)#219
     + 730 x(220)#220 + 150 x(221)#221 + 494 x(222)#222 + 103 x(223)#223
     + 69 x(224)#224 + 537 x(225)#225 + 391 x(226)#226 + 26 x(227)#227
     + 817 x(228)#228 + 496 x(229)#229 + 690 x(230)#230 + 949 x(231)#231
     + 518 x(232)#232 + 387 x(233)#233 + 197 x(234)#234 + 314 x(235)#235
     + 677 x(236)#236 + 938 x(237)#237 + 198 x(238)#238 + 108 x(239)#239
     + 497 x(240)#240 + 384 x(241)#241 + 581 x(242)#242 + 413 x(243)#243
     + 402 x(244)#244 + 752 x(245)#245 + 441 x(246)#246 + 769 x(247)#247
     + 901 x(248)#248 + 864 x(249)#249 <= 60587
 c3: 791 x(0)#0 + 633 x(1)#1 + 532 x(2)#2 + 752 x(3)#3 + 762 x(4)#4
     + 591 x(5)#5 + 526 x(6)#6 + 425 x(7)#7 + 742 x(8)#8 + 780 x(9)#9
     + 999 x(10)#10 + 781 x(11)#11 + 682 x(12)#12 + 83 x(13)#13 + 6 x(14)#14
     + 515 x(15)#15 + 112 x(16)#16 + 411 x(17)#17 + 969 x(18)#18 + 494 x(19)#19
     + 918 x(20)#20 + 487 x(21)#21 + 873 x(22)#22 + 946 x(23)#23 + 51 x(24)#24
     + 358 x(25)#25 + 749 x(26)#26 + 47 x(27)#27 + 993 x(28)#28 + 41 x(29)#29
     + 303 x(30)#30 + 137 x(31)#31 + 148 x(32)#32 + 176 x(33)#33 + 744 x(34)#34
     + 133 x(35)#35 + 590 x(36)#36 + 59 x(37)#37 + 523 x(38)#38 + 195 x(39)#39
     + 952 x(40)#40 + 946 x(41)#41 + 173 x(42)#42 + 411 x(43)#43 + 440 x(44)#44
     + 843 x(45)#45 + 904 x(46)#46 + 594 x(47)#47 + 981 x(48)#48 + 903 x(49)#49
     + 602 x(50)#50 + 745 x(51)#51 + 20 x(52)#52 + 570 x(53)#53 + 561 x(54)#54
     + 746 x(55)#55 + 48 x(56)#56 + 206 x(57)#57 + 234 x(58)#58 + 346 x(59)#59
     + 938 x(60)#60 + 175 x(61)#61 + 862 x(62)#62 + 645 x(63)#63 + 78 x(64)#64
     + 685 x(65)#65 + 180 x(66)#66 + 748 x(67)#67 + 522 x(68)#68 + 652 x(69)#69
     + 844 x(70)#70 + 478 x(71)#71 + 317 x(72)#72 + 875 x(73)#73 + 392 x(74)#74
     + 298 x(75)#75 + 236 x(76)#76 + 510 x(77)#77 + 987 x(78)#78 + 921 x(79)#79
     + 579 x(80)#80 + 875 x(81)#81 + 215 x(82)#82 + 939 x(83)#83 + 541 x(84)#84
     + 511 x(85)#85 + 440 x(86)#86 + 712 x(87)#87 + 403 x(88)#88 + 894 x(89)#89
     + 122 x(90)#90 + 666 x(91)#91 + 199 x(92)#92 + 844 x(93)#93 + 371 x(94)#94
     + 61 x(95)#95 + 46 x(96)#96 + 215 x(97)#97 + 840 x(98)#98 + 798 x(99)#99
     + 630 x(100)#100 + 297 x(101)#101 + 769 x(102)#102 + 572 x(103)#103
     + 438 x(104)#104 + 319 x(105)#105 + 899 x(106)#106 + 634 x(107)#107
     + 566 x(108)#108 + 75 x(109)#109 + 601 x(110)#110 + 615 x(111)#111
     + 522 x(112)#112 + 817 x(113)#113 + 865 x(114)#114 + 996 x(115)#115
     + 746 x(116)#116 + 779 x(117)#117 + 192 x(118)#118 + 435 x(119)#119
     + 23 x(120)#120 + 221 x(121)#121 + 325 x(122)#122 + 72 x(123)#123
     + 309 x(124)#124 + 200 x(125)#125 + 886 x(126)#126 + 720 x(127)#127
     + 819 x(128)#128 + 223 x(129)#129 + 301 x(130)#130 + 692 x(131)#131
     + 603 x(132)#132 + 475 x(133)#133 + 305 x(134)#134 + 828 x(135)#135
     + 521 x(136)#136 + 663 x(137)#137 + 44 x(138)#138 + 515 x(139)#139
     + 846 x(140)#140 + 386 x(141)#141 + 279 x(142)#142 + 694 x(143)#143
     + 498 x(144)#144 + 152 x(145)#145 + 184 x(146)#146 + 812 x(147)#147
     + 820 x(148)#148 + 328 x(149)#149 + 687 x(150)#150 + 565 x(151)#151
     + 113 x(152)#152 + 459 x(153)#153 + 635 x(154)#154 + 530 x(155)#155
     + 565 x(156)#156 + 946 x(157)#157 + 727 x(158)#158 + 16 x(159)#159
     + 701 x(160)#160 + 100 x(161)#161 + 556 x(162)#162 + 348 x(163)#163
     + 352 x(164)#164 + 145 x(165)#165 + 492 x(166)#166 + 957 x(167)#167
     + 312 x(168)#168 + 994 x(169)#169 + 60 x(170)#170 + 85 x(171)#171
     + 181 x(172)#172 + 772 x(173)#173 + 592 x(174)#174 + 461 x(175)#175
     + 964 x(176)#176 + 241 x(177)#177 + 755 x(178)#178 + 563 x(179)#179
     + 634 x(180)#180 + 197 x(181)#181 + 365 x(182)#182 + 644 x(183)#183
     + 491 x(184)#184 + 513 x(185)#185 + 723 x(186)#186 + 521 x(187)#187
     + 184 x(188)#188 + 106 x(189)#189 + 709 x(190)#190 + 236 x(191)#191
     + 372 x(192)#192 + 870 x(193)#193 + 706 x(194)#194 + 127 x(195)#195
     + 245 x(196)#196 + 892 x(197)#197 + 868 x(198)#198 + 33 x(199)#199
     + 162 x(200)#200 + 568 x(201)#201 + 291 x(202)#202 + 159 x(203)#203
     + 897 x(204)#204 + 881 x(205)#205 + 138 x(206)#206 + 884 x(207)#207
     + 751 x(208)#208 + 307 x(209)#209 + 971 x(210)#210 + 328 x(211)#211
     + 284 x(212)#212 + 443 x(213)#213 + 396 x(214)#214 + 506 x(215)#215
     + 507 x(216)#216 + 455 x(217)#217 + 910 x(218)#218 + 501 x(219)#219
     + 301 x(220)#220 + 721 x(221)#221 + 681 x(222)#222 + 956 x(223)#223
     + 816 x(224)#224 + 30 x(225)#225 + 506 x(226)#226 + 901 x(227)#227
     + 570 x(228)#228 + 11 x(229)#229 + 767 x(230)#230 + 486 x(231)#231
     + 192 x(232)#232 + 43 x(233)#233 + 264 x(234)#234 + 835 x(235)#235
     + 12 x(236)#236 + 912 x(237)#237 + 478 x(238)#238 + 219 x(239)#239
     + 762 x(240)#240 + 47 x(241)#241 + 176 x(242)#242 + 469 x(243)#243
     + 554 x(244)#244 + 138 x(245)#245 + 210 x(246)#246 + 413 x(247)#247
     + 355 x(248)#248 + 755 x(249)#249 <= 63318
 c4: 628 x(0)#0 + 902 x(1)#1 + 812 x(2)#2 + 78 x(3)#3 + 219 x(4)#4 + 183 x(5)#5
     + 785 x(6)#6 + 404 x(7)#7 + 586 x(8)#8 + 214 x(9)#9 + 607 x(10)#10
     + 886 x(11)#11 + 718 x(12)#12 + 342 x(13)#13 + 128 x(14)#14 + 704 x(15)#15
     + 852 x(16)#16 + 111 x(17)#17 + 461 x(18)#18 + 81 x(19)#19 + 971 x(20)#20
     + 617 x(21)#21 + 671 x(22)#22 + 20 x(23)#23 + 57 x(24)#24 + 784 x(25)#25
     + 380 x(26)#26 + 208 x(27)#27 + 735 x(28)#28 + 151 x(29)#29 + 762 x(30)#30
     + 824 x(31)#31 + 956 x(32)#32 + 133 x(33)#33 + 229 x(34)#34 + 89 x(35)#35
     + 930 x(36)#36 + 447 x(37)#37 + 944 x(38)#38 + 823 x(39)#39 + 458 x(40)#40
     + 658 x(41)#41 + 20 x(42)#42 + 686 x(43)#43 + 48 x(44)#44 + 447 x(45)#45
     + 772 x(46)#46 + 313 x(47)#47 + 575 x(48)#48 + 805 x(49)#49 + 405 x(50)#50
     + 389 x(51)#51 + 474 x(52)#52 + 592 x(53)#53 + 526 x(54)#54 + 954 x(55)#55
     + 184 x(56)#56 + 587 x(57)#57 + 459 x(58)#58 + 831 x(59)#59 + 933 x(60)#60
     + 166 x(61)#61 + 833 x(62)#62 + 3 x(63)#63 + 319 x(64)#64 + 807 x(65)#65
     + 824 x(66)#66 + 379 x(67)#67 + 919 x(68)#68 + 938 x(69)#69 + 188 x(70)#70
     + 447 x(71)#71 + 748 x(72)#72 + 497 x(73)#73 + 466 x(74)#74 + 827 x(75)#75
     + 583 x(76)#76 + 546 x(77)#77 + 227 x(78)#78 + 261 x(79)#79 + 296 x(80)#80
     + 867 x(81)#81 + 922 x(82)#82 + 387 x(83)#83 + 571 x(84)#84 + 710 x(85)#85
     + 909 x(86)#86 + 50 x(87)#87 + 770 x(88)#88 + 396 x(89)#89 + 406 x(90)#90
     + 199 x(91)#91 + 258 x(92)#92 + 731 x(93)#93 + 438 x(94)#94 + 734 x(95)#95
     + 93 x(96)#96 + 823 x(97)#97 + 22 x(98)#98 + 428 x(99)#99 + 786 x(100)#100
     + 674 x(101)#101 + 557 x(102)#102 + 676 x(103)#103 + 262 x(104)#104
     + 507 x(105)#105 + 288 x(106)#106 + 579 x(107)#107 + 409 x(108)#108
     + 207 x(109)#109 + 669 x(110)#110 + 109 x(111)#111 + 600 x(112)#112
     + 299 x(113)#113 + 318 x(114)#114 + 180 x(115)#115 + 646 x(116)#116
     + 437 x(117)#117 + 246 x(118)#118 + 836 x(119)#119 + 682 x(120)#120
     + 709 x(121)#121 + 524 x(122)#122 + 823 x(123)#123 + 662 x(124)#124
     + 710 x(125)#125 + 59 x(126)#126 + 161 x(127)#127 + 997 x(128)#128
     + 212 x(129)#129 + 469 x(130)#130 + 427 x(131)#131 + 394 x(132)#132
     + 261 x(133)#133 + 91 x(134)#134 + 8 x(135)#135 + 153 x(136)#136
     + 904 x(137)#137 + 982 x(138)#138 + 697 x(139)#139 + 110 x(140)#140
     + 359 x(141)#141 + 578 x(142)#142 + 584 x(143)#143 + 343 x(144)#144
     + 539 x(145)#145 + 584 x(146)#146 + 887 x(147)#147 + 578 x(148)#148
     + 59 x(149)#149 + 264 x(150)#150 + 311 x(151)#151 + 358 x(152)#152
     + 228 x(153)#153 + 40 x(154)#154 + 999 x(155)#155 + 363 x(156)#156
     + 95 x(157)#157 + 478 x(158)#158 + 131 x(159)#159 + 96 x(160)#160
     + 822 x(161)#161 + 503 x(162)#162 + 424 x(163)#163 + 408 x(164)#164
     + 437 x(165)#165 + 974 x(166)#166 + 640 x(167)#167 + 220 x(168)#168
     + 416 x(169)#169 + 572 x(170)#170 + 18 x(171)#171 + 303 x(172)#172
     + 288 x(173)#173 + 579 x(174)#174 + 815 x(175)#175 + 868 x(176)#176
     + 772 x(177)#177 + 632 x(178)#178 + 181 x(179)#179 + 744 x(180)#180
     + 993 x(181)#181 + 531 x(182)#182 + 875 x(183)#183 + 191 x(184)#184
     + 938 x(185)#185 + 703 x(186)#186 + 808 x(187)#187 + 607 x(188)#188
     + 470 x(189)#189 + 554 x(190)#190 + 820 x(191)#191 + 174 x(192)#192
     + 941 x(193)#193 + 915 x(194)#194 + 484 x(195)#195 + 684 x(196)#196
     + 528 x(197)#197 + 159 x(198)#198 + 710 x(199)#199 + 377 x(200)#200
     + 210 x(201)#201 + 931 x(202)#202 + 864 x(203)#203 + 332 x(204)#204
     + 875 x(205)#205 + 758 x(206)#206 + 633 x(207)#207 + 560 x(208)#208
     + 390 x(209)#209 + 366 x(210)#210 + 516 x(211)#211 + 784 x(212)#212
     + 712 x(213)#213 + 919 x(214)#214 + 97 x(215)#215 + 916 x(216)#216
     + 727 x(217)#217 + 346 x(218)#218 + 650 x(219)#219 + 371 x(220)#220
     + 243 x(221)#221 + 444 x(222)#222 + 645 x(223)#223 + 823 x(224)#224
     + 64 x(225)#225 + 650 x(226)#226 + 454 x(227)#227 + 110 x(228)#228
     + 687 x(229)#229 + 669 x(230)#230 + 450 x(231)#231 + 181 x(232)#232
     + 968 x(233)#233 + 457 x(234)#234 + 643 x(235)#235 + 805 x(236)#236
     + 360 x(237)#237 + 349 x(238)#238 + 967 x(239)#239 + 523 x(240)#240
     + 762 x(241)#241 + 74 x(242)#242 + 135 x(243)#243 + 833 x(244)#244
     + 814 x(245)#245 + 140 x(246)#246 + 944 x(247)#247 + 151 x(248)#248
     + 532 x(249)#249 <= 64321
 c5: 866 x(0)#0 + 403 x(1)#1 + 894 x(2)#2 + 486 x(3)#3 + 917 x(4)#4
     + 653 x(5)#5 + 818 x(6)#6 + 201 x(7)#7 + 642 x(8)#8 + 967 x(9)#9
     + 373 x(10)#10 + 730 x(11)#11 + 368 x(12)#12 + 562 x(13)#13 + 75 x(14)#14
     + 577 x(15)#15 + 936 x(16)#16 + 778 x(17)#17 + 593 x(18)#18 + 806 x(19)#19
     + 887 x(20)#20 + 216 x(21)#21 + 669 x(22)#22 + 766 x(23)#23 + 37 x(24)#24
     + 828 x(25)#25 + 60 x(26)#26 + 796 x(27)#27 + 675 x(28)#28 + 320 x(29)#29
     + 158 x(30)#30 + 727 x(31)#31 + 6 x(32)#32 + 38 x(33)#33 + 914 x(34)#34
     + 791 x(35)#35 + 278 x(36)#36 + 293 x(37)#37 + 512 x(38)#38 + 566 x(39)#39
     + 749 x(40)#40 + 206 x(41)#41 + 354 x(42)#42 + 761 x(43)#43 + 192 x(44)#44
     + 385 x(45)#45 + 145 x(46)#46 + 668 x(47)#47 + 911 x(48)#48 + 13 x(49)#49
     + 601 x(50)#50 + 407 x(51)#51 + 212 x(52)#52 + 948 x(53)#53 + 93 x(54)#54
     + 955 x(55)#55 + 222 x(56)#56 + 403 x(57)#57 + 129 x(58)#58 + 674 x(59)#59
     + 146 x(60)#60 + 530 x(61)#61 + 81 x(62)#62 + 897 x(63)#63 + 270 x(64)#64
     + 536 x(65)#65 + 732 x(66)#66 + 182 x(67)#67 + 669 x(68)#68 + 948 x(69)#69
     + 440 x(70)#70 + 353 x(71)#71 + 282 x(72)#72 + 907 x(73)#73 + 732 x(74)#74
     + 12 x(75)#75 + 381 x(76)#76 + 189 x(77)#77 + 592 x(78)#78 + 83 x(79)#79
     + 542 x(80)#80 + 573 x(81)#81 + 461 x(82)#82 + 714 x(83)#83 + 5 x(84)#84
     + 596 x(85)#85 + 4 x(86)#86 + 161 x(87)#87 + 285 x(88)#88 + 757 x(89)#89
     + 967 x(90)#90 + 360 x(91)#91 + 179 x(92)#92 + 278 x(93)#93 + 177 x(94)#94
     + 905 x(95)#95 + 314 x(96)#96 + 667 x(97)#97 + 79 x(98)#98 + 971 x(99)#99
     + 540 x(100)#100 + 403 x(101)#101 + 251 x(102)#102 + 728 x(103)#103
     + 9 x(104)#104 + 287 x(105)#105 + 917 x(106)#106 + 307 x(107)#107
     + 16 x(108)#108 + 646 x(109)#109 + 496 x(110)#110 + 868 x(111)#111
     + 518 x(112)#112 + 538 x(113)#113 + 533 x(114)#114 + 335 x(115)#115
     + 16 x(116)#116 + 527 x(117)#117 + 721 x(118)#118 + 423 x(119)#119
     + 338 x(120)#120 + 497 x(121)#121 + 231 x(122)#122 + 126 x(123)#123
     + 541 x(124)#124 + 971 x(125)#125 + 118 x(126)#126 + 289 x(127)#127
     + 19 x(128)#128 + 519 x(129)#129 + 481 x(130)#130 + 365 x(131)#131
     + 179 x(132)#132 + 377 x(133)#133 + 241 x(134)#134 + 837 x(135)#135
     + 618 x(136)#136 + 185 x(137)#137 + 115 x(138)#138 + 366 x(139)#139
     + 711 x(140)#140 + 364 x(141)#141 + 352 x(142)#142 + 352 x(143)#143
     + 141 x(144)#144 + 234 x(145)#145 + 512 x(146)#146 + 541 x(147)#147
     + 535 x(148)#148 + 46 x(149)#149 + 750 x(150)#150 + 223 x(151)#151
     + 645 x(152)#152 + 856 x(153)#153 + 145 x(154)#154 + 68 x(155)#155
     + 769 x(156)#156 + 881 x(157)#157 + 456 x(158)#158 + 96 x(159)#159
     + 951 x(160)#160 + 195 x(161)#161 + 499 x(162)#162 + 398 x(163)#163
     + 408 x(164)#164 + 990 x(165)#165 + 818 x(166)#166 + 566 x(167)#167
     + 254 x(168)#168 + 922 x(169)#169 + 262 x(170)#170 + 429 x(171)#171
     + 460 x(172)#172 + 816 x(173)#173 + x(174)#174 + 536 x(175)#175
     + 245 x(176)#176 + 776 x(177)#177 + 54 x(178)#178 + 662 x(179)#179
     + 457 x(180)#180 + 856 x(181)#181 + 937 x(182)#182 + 320 x(183)#183
     + 231 x(184)#184 + 545 x(185)#185 + 357 x(186)#186 + 409 x(187)#187
     + 701 x(188)#188 + 985 x(189)#189 + 86 x(190)#190 + 350 x(191)#191
     + 368 x(192)#192 + 583 x(193)#193 + 653 x(194)#194 + 460 x(195)#195
     + 428 x(196)#196 + 763 x(197)#197 + 37 x(198)#198 + 12 x(199)#199
     + 747 x(200)#200 + 369 x(201)#201 + 791 x(202)#202 + 168 x(203)#203
     + 22 x(204)#204 + 714 x(205)#205 + 931 x(206)#206 + 930 x(207)#207
     + 509 x(208)#208 + 361 x(209)#209 + 313 x(210)#210 + 152 x(211)#211
     + 750 x(212)#212 + 830 x(213)#213 + 10 x(214)#214 + 914 x(215)#215
     + 270 x(216)#216 + 828 x(217)#217 + 618 x(218)#218 + 199 x(219)#219
     + 323 x(220)#220 + 890 x(221)#221 + 89 x(222)#222 + 515 x(223)#223
     + 981 x(224)#224 + 124 x(225)#225 + 726 x(226)#226 + 305 x(227)#227
     + 208 x(228)#228 + 151 x(229)#229 + 299 x(230)#230 + 247 x(231)#231
     + 923 x(232)#232 + 183 x(233)#233 + 166 x(234)#234 + 543 x(235)#235
     + 230 x(236)#236 + 97 x(237)#237 + 277 x(238)#238 + 23 x(239)#239
     + 909 x(240)#240 + 903 x(241)#241 + 471 x(242)#242 + 293 x(243)#243
     + 150 x(244)#244 + 471 x(245)#245 + 114 x(246)#246 + 716 x(247)#247
     + 164 x(248)#248 + 290 x(249)#249 <= 58162
Bounds
 0 <= x(0)#0 <= 1
 0 <= x(1)#1 <= 1
 0 <= x(2)#2 <= 1
 0 <= x(3)#3 <= 1
 0 <= x(4)#4 <= 1
 0 <= x(5)#5 <= 1
 0 <= x(6)#6 <= 1
 0 <= x(7)#7 <= 1
 0 <= x(8)#8 <= 1
 0 <= x(9)#9 <= 1
 0 <= x(10)#10 <= 1
 0 <= x(11)#11 <= 1
 0 <= x(12)#12 <= 1
 0 <= x(13)#13 <= 1
 0 <= x(14)#14 <= 1
 0 <= x(15)#15 <= 1
 0 <= x(16)#16 <= 1
 0 <= x(17)#17 <= 1
 0 <= x(18)#18 <= 1
 0 <= x(19)#19 <= 1
 0 <= x(20)#20 <= 1
 0 <= x(21)#21 <= 1
 0 <= x(22)#22 <= 1
 0 <= x(23)#23 <= 1
 0 <= x(24)#24 <= 1
 0 <= x(25)#25 <= 1
 0 <= x(26)#26 <= 1
 0 <= x(27)#27 <= 1
 0 <= x(28)#28 <= 1
 0 <= x(29)#29 <= 1
 0 <= x(30)#30 <= 1
 0 <= x(31)#31 <= 1
 0 <= x(32)#32 <= 1
 0 <= x(33)#33 <= 1
 0 <= x(34)#34 <= 1
 0 <= x(35)#35 <= 1
 0 <= x(36)#36 <= 1
 0 <= x(37)#37 <= 1
 0 <= x(38)#38 <= 1
 0 <= x(39)#39 <= 1
 0 <= x(40)#40 <= 1
 0 <= x(41)#41 <= 1
 0 <= x(42)#42 <= 1
 0 <= x(43)#43 <= 1
 0 <= x(44)#44 <= 1
 0 <= x(45)#45 <= 1
 0 <= x(46)#46 <= 1
 0 <= x(47)#47 <= 1
 0 <= x(48)#48 <= 1
 0 <= x(49)#49 <= 1
 0 <= x(50)#50 <= 1
 0 <= x(51)#51 <= 1
 0 <= x(52)#52 <= 1
 0 <= x(53)#53 <= 1
 0 <= x(54)#54 <= 1
 0 <= x(55)#55 <= 1
 0 <= x(56)#56 <= 1
 0 <= x(57)#57 <= 1
 0 <= x(58)#58 <= 1
 0 <= x(59)#59 <= 1
 0 <= x(60)#60 <= 1
 0 <= x(61)#61 <= 1
 0 <= x(62)#62 <= 1
 0 <= x(63)#63 <= 1
 0 <= x(64)#64 <= 1
 0 <= x(65)#65 <= 1
 0 <= x(66)#66 <= 1
 0 <= x(67)#67 <= 1
 0 <= x(68)#68 <= 1
 0 <= x(69)#69 <= 1
 0 <= x(70)#70 <= 1
 0 <= x(71)#71 <= 1
 0 <= x(72)#72 <= 1
 0 <= x(73)#73 <= 1
 0 <= x(74)#74 <= 1
 0 <= x(75)#75 <= 1
 0 <= x(76)#76 <= 1
 0 <= x(77)#77 <= 1
 0 <= x(78)#78 <= 1
 0 <= x(79)#79 <= 1
 0 <= x(80)#80 <= 1
 0 <= x(81)#81 <= 1
 0 <= x(82)#82 <= 1
 0 <= x(83)#83 <= 1
 0 <= x(84)#84 <= 1
 0 <= x(85)#85 <= 1
 0 <= x(86)#86 <= 1
 0 <= x(87)#87 <= 1
 0 <= x(88)#88 <= 1
 0 <= x(89)#89 <= 1
 0 <= x(90)#90 <= 1
 0 <= x(91)#91 <= 1
 0 <= x(92)#92 <= 1
 0 <= x(93)#93 <= 1
 0 <= x(94)#94 <= 1
 0 <= x(95)#95 <= 1
 0 <= x(96)#96 <= 1
 0 <= x(97)#97 <= 1
 0 <= x(98)#98 <= 1
 0 <= x(99)#99 <= 1
 0 <= x(100)#100 <= 1
 0 <= x(101)#101 <= 1
 0 <= x(102)#102 <= 1
 0 <= x(103)#103 <= 1
 0 <= x(104)#104 <= 1
 0 <= x(105)#105 <= 1
 0 <= x(106)#106 <= 1
 0 <= x(107)#107 <= 1
 0 <= x(108)#108 <= 1
 0 <= x(109)#109 <= 1
 0 <= x(110)#110 <= 1
 0 <= x(111)#111 <= 1
 0 <= x(112)#112 <= 1
 0 <= x(113)#113 <= 1
 0 <= x(114)#114 <= 1
 0 <= x(115)#115 <= 1
 0 <= x(116)#116 <= 1
 0 <= x(117)#117 <= 1
 0 <= x(118)#118 <= 1
 0 <= x(119)#119 <= 1
 0 <= x(120)#120 <= 1
 0 <= x(121)#121 <= 1
 0 <= x(122)#122 <= 1
 0 <= x(123)#123 <= 1
 0 <= x(124)#124 <= 1
 0 <= x(125)#125 <= 1
 0 <= x(126)#126 <= 1
 0 <= x(127)#127 <= 1
 0 <= x(128)#128 <= 1
 0 <= x(129)#129 <= 1
 0 <= x(130)#130 <= 1
 0 <= x(131)#131 <= 1
 0 <= x(132)#132 <= 1
 0 <= x(133)#133 <= 1
 0 <= x(134)#134 <= 1
 0 <= x(135)#135 <= 1
 0 <= x(136)#136 <= 1
 0 <= x(137)#137 <= 1
 0 <= x(138)#138 <= 1
 0 <= x(139)#139 <= 1
 0 <= x(140)#140 <= 1
 0 <= x(141)#141 <= 1
 0 <= x(142)#142 <= 1
 0 <= x(143)#143 <= 1
 0 <= x(144)#144 <= 1
 0 <= x(145)#145 <= 1
 0 <= x(146)#146 <= 1
 0 <= x(147)#147 <= 1
 0 <= x(148)#148 <= 1
 0 <= x(149)#149 <= 1
 0 <= x(150)#150 <= 1
 0 <= x(151)#151 <= 1
 0 <= x(152)#152 <= 1
 0 <= x(153)#153 <= 1
 0 <= x(154)#154 <= 1
 0 <= x(155)#155 <= 1
 0 <= x(156)#156 <= 1
 0 <= x(157)#157 <= 1
 0 <= x(158)#158 <= 1
 0 <= x(159)#159 <= 1
 0 <= x(160)#160 <= 1
 0 <= x(161)#161 <= 1
 0 <= x(162)#162 <= 1
 0 <= x(163)#163 <= 1
 0 <= x(164)#164 <= 1
 0 <= x(165)#165 <= 1
 0 <= x(166)#166 <= 1
 0 <= x(167)#167 <= 1
 0 <= x(168)#168 <= 1
 0 <= x(169)#169 <= 1
 0 <= x(170)#170 <= 1
 0 <= x(171)#171 <= 1
 0 <= x(172)#172 <= 1
 0 <= x(173)#173 <= 1
 0 <= x(174)#174 <= 1
 0 <= x(175)#175 <= 1
 0 <= x(176)#176 <= 1
 0 <= x(177)#177 <= 1
 0 <= x(178)#178 <= 1
 0 <= x(179)#179 <= 1
 0 <= x(180)#180 <= 1
 0 <= x(181)#181 <= 1
 0 <= x(182)#182 <= 1
 0 <= x(183)#183 <= 1
 0 <= x(184)#184 <= 1
 0 <= x(185)#185 <= 1
 0 <= x(186)#186 <= 1
 0 <= x(187)#187 <= 1
 0 <= x(188)#188 <= 1
 0 <= x(189)#189 <= 1
 0 <= x(190)#190 <= 1
 0 <= x(191)#191 <= 1
 0 <= x(192)#192 <= 1
 0 <= x(193)#193 <= 1
 0 <= x(194)#194 <= 1
 0 <= x(195)#195 <= 1
 0 <= x(196)#196 <= 1
 0 <= x(197)#197 <= 1
 0 <= x(198)#198 <= 1
 0 <= x(199)#199 <= 1
 0 <= x(200)#200 <= 1
 0 <= x(201)#201 <= 1
 0 <= x(202)#202 <= 1
 0 <= x(203)#203 <= 1
 0 <= x(204)#204 <= 1
 0 <= x(205)#205 <= 1
 0 <= x(206)#206 <= 1
 0 <= x(207)#207 <= 1
 0 <= x(208)#208 <= 1
 0 <= x(209)#209 <= 1
 0 <= x(210)#210 <= 1
 0 <= x(211)#211 <= 1
 0 <= x(212)#212 <= 1
 0 <= x(213)#213 <= 1
 0 <= x(214)#214 <= 1
 0 <= x(215)#215 <= 1
 0 <= x(216)#216 <= 1
 0 <= x(217)#217 <= 1
 0 <= x(218)#218 <= 1
 0 <= x(219)#219 <= 1
 0 <= x(220)#220 <= 1
 0 <= x(221)#221 <= 1
 0 <= x(222)#222 <= 1
 0 <= x(223)#223 <= 1
 0 <= x(224)#224 <= 1
 0 <= x(225)#225 <= 1
 0 <= x(226)#226 <= 1
 0 <= x(227)#227 <= 1
 0 <= x(228)#228 <= 1
 0 <= x(229)#229 <= 1
 0 <= x(230)#230 <= 1
 0 <= x(231)#231 <= 1
 0 <= x(232)#232 <= 1
 0 <= x(233)#233 <= 1
 0 <= x(234)#234 <= 1
 0 <= x(235)#235 <= 1
 0 <= x(236)#236 <= 1
 0 <= x(237)#237 <= 1
 0 <= x(238)#238 <= 1
 0 <= x(239)#239 <= 1
 0 <= x(240)#240 <= 1
 0 <= x(241)#241 <= 1
 0 <= x(242)#242 <= 1
 0 <= x(243)#243 <= 1
 0 <= x(244)#244 <= 1
 0 <= x(245)#245 <= 1
 0 <= x(246)#246 <= 1
 0 <= x(247)#247 <= 1
 0 <= x(248)#248 <= 1
 0 <= x(249)#249 <= 1
Generals
 x(0)#0  x(1)#1  x(2)#2  x(3)#3  x(4)#4  x(5)#5  x(6)#6  x(7)#7  x(8)#8 
 x(9)#9  x(10)#10  x(11)#11  x(12)#12  x(13)#13  x(14)#14  x(15)#15  x(16)#16 
 x(17)#17  x(18)#18  x(19)#19  x(20)#20  x(21)#21  x(22)#22  x(23)#23 
 x(24)#24  x(25)#25  x(26)#26  x(27)#27  x(28)#28  x(29)#29  x(30)#30 
 x(31)#31  x(32)#32  x(33)#33  x(34)#34  x(35)#35  x(36)#36  x(37)#37 
 x(38)#38  x(39)#39  x(40)#40  x(41)#41  x(42)#42  x(43)#43  x(44)#44 
 x(45)#45  x(46)#46  x(47)#47  x(48)#48  x(49)#49  x(50)#50  x(51)#51 
 x(52)#52  x(53)#53  x(54)#54  x(55)#55  x(56)#56  x(57)#57  x(58)#58 
 x(59)#59  x(60)#60  x(61)#61  x(62)#62  x(63)#63  x(64)#64  x(65)#65 
 x(66)#66  x(67)#67  x(68)#68  x(69)#69  x(70)#70  x(71)#71  x(72)#72 
 x(73)#73  x(74)#74  x(75)#75  x(76)#76  x(77)#77  x(78)#78  x(79)#79 
 x(80)#80  x(81)#81  x(82)#82  x(83)#83  x(84)#84  x(85)#85  x(86)#86 
 x(87)#87  x(88)#88  x(89)#89  x(90)#90  x(91)#91  x(92)#92  x(93)#93 
 x(94)#94  x(95)#95  x(96)#96  x(97)#97  x(98)#98  x(99)#99  x(100)#100 
 x(101)#101  x(102)#102  x(103)#103  x(104)#104  x(105)#105  x(106)#106 
 x(107)#107  x(108)#108  x(109)#109  x(110)#110  x(111)#111  x(112)#112 
 x(113)#113  x(114)#114  x(115)#115  x(116)#116  x(117)#117  x(118)#118 
 x(119)#119  x(120)#120  x(121)#121  x(122)#122  x(123)#123  x(124)#124 
 x(125)#125  x(126)#126  x(127)#127  x(128)#128  x(129)#129  x(130)#130 
 x(131)#131  x(132)#132  x(133)#133  x(134)#134  x(135)#135  x(136)#136 
 x(137)#137  x(138)#138  x(139)#139  x(140)#140  x(141)#141  x(142)#142 
 x(143)#143  x(144)#144  x(145)#145  x(146)#146  x(147)#147  x(148)#148 
 x(149)#149  x(150)#150  x(151)#151  x(152)#152  x(153)#153  x(154)#154 
 x(155)#155  x(156)#156  x(157)#157  x(158)#158  x(159)#159  x(160)#160 
 x(161)#161  x(162)#162  x(163)#163  x(164)#164  x(165)#165  x(166)#166 
 x(167)#167  x(168)#168  x(169)#169  x(170)#170  x(171)#171  x(172)#172 
 x(173)#173  x(174)#174  x(175)#175  x(176)#176  x(177)#177  x(178)#178 
 x(179)#179  x(180)#180  x(181)#181  x(182)#182  x(183)#183  x(184)#184 
 x(185)#185  x(186)#186  x(187)#187  x(188)#188  x(189)#189  x(190)#190 
 x(191)#191  x(192)#192  x(193)#193  x(194)#194  x(195)#195  x(196)#196 
 x(197)#197  x(198)#198  x(199)#199  x(200)#200  x(201)#201  x(202)#202 
 x(203)#203  x(204)#204  x(205)#205  x(206)#206  x(207)#207  x(208)#208 
 x(209)#209  x(210)#210  x(211)#211  x(212)#212  x(213)#213  x(214)#214 
 x(215)#215  x(216)#216  x(217)#217  x(218)#218  x(219)#219  x(220)#220 
 x(221)#221  x(222)#222  x(223)#223  x(224)#224  x(225)#225  x(226)#226 
 x(227)#227  x(228)#228  x(229)#229  x(230)#230  x(231)#231  x(232)#232 
 x(233)#233  x(234)#234  x(235)#235  x(236)#236  x(237)#237  x(238)#238 
 x(239)#239  x(240)#240  x(241)#241  x(242)#242  x(243)#243  x(244)#244 
 x(245)#245  x(246)#246  x(247)#247  x(248)#248  x(249)#249 
End
